language Essence 1.3

letting class be
        function(1 --> 2, 2 --> 5, 3 --> 9, 4 --> 2, 5 --> 6, 6 --> 3, 7 --> 7, 8 --> 2, 9 --> 6, 10 --> 8, 11 --> 4,
                 12 --> 8, 13 --> 9, 14 --> 1, 15 --> 2, 16 --> 3, 17 --> 5, 18 --> 8, 19 --> 4, 20 --> 3, 21 --> 7,
                 22 --> 3, 23 --> 8, 24 --> 9, 25 --> 4, 26 --> 1, 27 --> 6, 28 --> 2, 29 --> 7)
letting deck_length be 21
letting deck_width be 28
letting length be
        function(1 --> 1, 2 --> 1, 3 --> 1, 4 --> 1, 5 --> 1, 6 --> 16, 7 --> 14, 8 --> 18, 9 --> 16, 10 --> 11,
                 11 --> 5, 12 --> 7, 13 --> 1, 14 --> 1, 15 --> 8, 16 --> 10, 17 --> 12, 18 --> 14, 19 --> 1, 20 --> 4,
                 21 --> 10, 22 --> 1, 23 --> 1, 24 --> 4, 25 --> 1, 26 --> 5, 27 --> 1, 28 --> 1, 29 --> 1)
letting n_classes be 9
letting n_containers be 29
letting separation be function()
letting width be
        function(1 --> 1, 2 --> 1, 3 --> 1, 4 --> 1, 5 --> 1, 6 --> 1, 7 --> 1, 8 --> 18, 9 --> 1, 10 --> 1, 11 --> 1,
                 12 --> 1, 13 --> 1, 14 --> 1, 15 --> 1, 16 --> 1, 17 --> 1, 18 --> 4, 19 --> 1, 20 --> 1, 21 --> 1,
                 22 --> 1, 23 --> 1, 24 --> 1, 25 --> 1, 26 --> 1, 27 --> 1, 28 --> 1, 29 --> 2)
